(set-info :source |printed by MathSAT|)
(declare-fun |!{a.1}| () (Array Int Int))
(declare-fun |!{a.1}.next| () (Array Int Int))
(declare-fun |!{b.2}| () (Array Int Int))
(declare-fun |!{b.2}.next| () (Array Int Int))
(declare-fun |!{SIZE}| () Int)
(declare-fun |!{SIZE}.next| () Int)
(declare-fun |!{i}| () Int)
(declare-fun |!{i}.next| () Int)
(declare-fun |!pc[0]| () Bool)
(declare-fun |!pc[0].next| () Bool)
(declare-fun |!pc[1]| () Bool)
(declare-fun |!pc[1].next| () Bool)
(declare-fun |!pc[2]| () Bool)
(declare-fun |!pc[2].next| () Bool)
(declare-fun |%{a.1}#1| () (Array Int Int))
(declare-fun |%{b.2}#1| () (Array Int Int))
(declare-fun nondet_int<0> () Int)
(declare-fun nondet_char<0> () Int)
(declare-fun |%{b.2}#2| () (Array Int Int))
(declare-fun |%{$temp.1}#3| () Int)
(declare-fun hist_nondet_int<0>_1 () Int)
(declare-fun hist_nondet_int<0>_1.next () Int)
(declare-fun proph0 () Int)
(declare-fun proph0.next () Int)
(define-fun .def_10 () Bool (! |!pc[2]| :next |!pc[2].next|))
(define-fun .def_12 () Bool (! |!pc[1]| :next |!pc[1].next|))
(define-fun .def_14 () Bool (! |!pc[0]| :next |!pc[0].next|))
(define-fun .def_30 () (Array Int Int) (! |!{b.2}| :next |!{b.2}.next|))
(define-fun .def_35 () (Array Int Int) (! |!{a.1}| :next |!{a.1}.next|))
(define-fun .def_47 () Int (! |!{SIZE}| :next |!{SIZE}.next|))
(define-fun .def_58 () Int (! |!{i}| :next |!{i}.next|))
(define-fun .def_12103 () Int (! hist_nondet_int<0>_1 :next |hist_nondet_int<0>_1.next|))
(define-fun .def_12109 () Int (! proph0 :next |proph0.next|))
(define-fun .def_15 () Bool (not .def_14))
(define-fun .def_13 () Bool (not .def_12))
(define-fun .def_16 () Bool (and .def_13 .def_15))
(define-fun .def_11 () Bool (not .def_10))
(define-fun .def_17 () Bool (! (and .def_11 .def_16) :init true))
(define-fun .def_12112 () Bool (= .def_12109 proph0.next))
(define-fun .def_12105 () Bool (= nondet_int<0> hist_nondet_int<0>_1.next))
(define-fun .def_131 () Bool (<= nondet_int<0> 0))
(define-fun .def_132 () Bool (not .def_131))
(define-fun .def_127 () Bool (= |!{a.1}.next| |%{a.1}#1|))
(define-fun .def_125 () Bool (= |!{b.2}.next| |%{b.2}#1|))
(define-fun .def_128 () Bool (and .def_125 .def_127))
(define-fun .def_123 () Bool (= nondet_int<0> |!{SIZE}.next|))
(define-fun .def_129 () Bool (and .def_123 .def_128))
(define-fun .def_122 () Bool (= |!{i}.next| 0))
(define-fun .def_130 () Bool (and .def_122 .def_129))
(define-fun .def_133 () Bool (and .def_130 .def_132))
(define-fun .def_86 () Bool (not |!pc[1].next|))
(define-fun .def_87 () Bool (and |!pc[0].next| .def_86))
(define-fun .def_24 () Bool (not |!pc[2].next|))
(define-fun .def_88 () Bool (and .def_24 .def_87))
(define-fun .def_121 () Bool (and .def_17 .def_88))
(define-fun .def_134 () Bool (and .def_121 .def_133))
(define-fun .def_117 () Bool (and .def_12 .def_15))
(define-fun .def_118 () Bool (and .def_11 .def_117))
(define-fun .def_22 () Bool (and |!pc[0].next| |!pc[1].next|))
(define-fun .def_25 () Bool (and .def_22 .def_24))
(define-fun .def_119 () Bool (and .def_25 .def_118))
(define-fun .def_66 () Bool (= .def_35 |!{a.1}.next|))
(define-fun .def_64 () Bool (= .def_30 |!{b.2}.next|))
(define-fun .def_67 () Bool (and .def_64 .def_66))
(define-fun .def_62 () Bool (= .def_47 |!{SIZE}.next|))
(define-fun .def_68 () Bool (and .def_62 .def_67))
(define-fun .def_60 () Bool (= .def_58 |!{i}.next|))
(define-fun .def_69 () Bool (and .def_60 .def_68))
(define-fun .def_120 () Bool (and .def_69 .def_119))
(define-fun .def_135 () Bool (or .def_120 .def_134))
(define-fun .def_71 () Bool (<= .def_47 .def_58))
(define-fun .def_112 () Bool (not .def_71))
(define-fun .def_106 () (Array Int Int) (store .def_35 .def_58 nondet_char<0>))
(define-fun .def_107 () Bool (= |!{a.1}.next| .def_106))
(define-fun .def_105 () Bool (= |!{b.2}.next| |%{b.2}#2|))
(define-fun .def_108 () Bool (and .def_105 .def_107))
(define-fun .def_109 () Bool (and .def_62 .def_108))
(define-fun .def_102 () Int (* (- 1) |!{i}.next|))
(define-fun .def_103 () Int (+ .def_58 .def_102))
(define-fun .def_104 () Bool (= .def_103 (- 1)))
(define-fun .def_110 () Bool (and .def_104 .def_109))
(define-fun .def_97 () Int (* 2 nondet_char<0>))
(define-fun .def_98 () (Array Int Int) (store .def_30 .def_58 .def_97))
(define-fun .def_99 () Bool (= |%{b.2}#2| .def_98))
(define-fun .def_94 () Bool (= nondet_int<0> 0))
(define-fun .def_100 () Bool (and .def_94 .def_99))
(define-fun .def_95 () Bool (not .def_94))
(define-fun .def_91 () (Array Int Int) (store .def_30 .def_58 nondet_char<0>))
(define-fun .def_93 () Bool (= .def_91 |%{b.2}#2|))
(define-fun .def_96 () Bool (and .def_93 .def_95))
(define-fun .def_101 () Bool (or .def_96 .def_100))
(define-fun .def_111 () Bool (and .def_101 .def_110))
(define-fun .def_113 () Bool (and .def_111 .def_112))
(define-fun .def_18 () Bool (and .def_13 .def_14))
(define-fun .def_19 () Bool (and .def_11 .def_18))
(define-fun .def_89 () Bool (and .def_19 .def_88))
(define-fun .def_114 () Bool (and .def_89 .def_113))
(define-fun .def_36 () Int (select .def_35 nondet_int<0>))
(define-fun .def_32 () Int (select .def_30 nondet_int<0>))
(define-fun .def_45 () Bool (= .def_32 .def_36))
(define-fun .def_42 () Int (* (- 2) .def_36))
(define-fun .def_43 () Int (+ .def_32 .def_42))
(define-fun .def_44 () Bool (= .def_43 0))
(define-fun .def_46 () Bool (or .def_44 .def_45))
(define-fun .def_78 () Bool (not .def_46))
(define-fun .def_79 () Bool (and .def_66 .def_78))
(define-fun .def_80 () Bool (and .def_64 .def_79))
(define-fun .def_81 () Bool (and .def_62 .def_80))
(define-fun .def_82 () Bool (and .def_60 .def_81))
(define-fun .def_50 () Bool (<= 0 nondet_int<0>))
(define-fun .def_48 () Bool (<= .def_47 nondet_int<0>))
(define-fun .def_49 () Bool (not .def_48))
(define-fun .def_51 () Bool (and .def_49 .def_50))
(define-fun .def_83 () Bool (and .def_51 .def_82))
(define-fun .def_84 () Bool (and .def_71 .def_83))
(define-fun .def_74 () Bool (not |!pc[0].next|))
(define-fun .def_75 () Bool (and |!pc[1].next| .def_74))
(define-fun .def_76 () Bool (and .def_24 .def_75))
(define-fun .def_77 () Bool (and .def_19 .def_76))
(define-fun .def_85 () Bool (and .def_77 .def_84))
(define-fun .def_115 () Bool (or .def_85 .def_114))
(define-fun .def_55 () Bool (not .def_51))
(define-fun .def_54 () Bool (= |%{$temp.1}#3| nondet_int<0>))
(define-fun .def_56 () Bool (and .def_54 .def_55))
(define-fun .def_52 () Bool (and .def_46 .def_51))
(define-fun .def_29 () Bool (= |%{$temp.1}#3| 1))
(define-fun .def_53 () Bool (and .def_29 .def_52))
(define-fun .def_57 () Bool (or .def_53 .def_56))
(define-fun .def_70 () Bool (and .def_57 .def_69))
(define-fun .def_72 () Bool (and .def_70 .def_71))
(define-fun .def_26 () Bool (and .def_19 .def_25))
(define-fun .def_73 () Bool (and .def_26 .def_72))
(define-fun .def_116 () Bool (or .def_73 .def_115))
(define-fun .def_136 () Bool (or .def_116 .def_135))
(define-fun .def_12107 () Bool (and .def_136 .def_12105))
(define-fun .def_12114 () Bool (! (and .def_12107 .def_12112) :trans true))
(define-fun .def_12110 () Bool (= .def_12103 .def_12109))
(define-fun .def_12115 () Bool (not .def_12110))
(define-fun .def_137 () Bool (not .def_118))
(define-fun .def_12116 () Bool (! (or .def_137 .def_12115) :invar-property 0))
(assert true)
